(set-logic ALL)
; rows (m) = 200
; cols (n) = 1
(declare-const D (Array Int (Array Int Int)))
(define-fun m () Int 200)
(define-fun n () Int 1)

(define-fun row1 ((x0 Int)) (Array Int Int)
  (store ((as const (Array Int Int)) 0) 0 x0)
)

(assert (= (select D 0) (row1 6)))
(assert (= (select D 1) (row1 48)))
(assert (= (select D 2) (row1 12)))
(assert (= (select D 3) (row1 42)))
(assert (= (select D 4) (row1 24)))
(assert (= (select D 5) (row1 36)))
(assert (= (select D 6) (row1 24)))
(assert (= (select D 7) (row1 36)))
(assert (= (select D 8) (row1 12)))
(assert (= (select D 9) (row1 30)))
(assert (= (select D 10) (row1 12)))
(assert (= (select D 11) (row1 48)))
(assert (= (select D 12) (row1 12)))
(assert (= (select D 13) (row1 24)))
(assert (= (select D 14) (row1 15)))
(assert (= (select D 15) (row1 24)))
(assert (= (select D 16) (row1 24)))
(assert (= (select D 17) (row1 30)))
(assert (= (select D 18) (row1 24)))
(assert (= (select D 19) (row1 24)))
(assert (= (select D 20) (row1 9)))
(assert (= (select D 21) (row1 6)))
(assert (= (select D 22) (row1 10)))
(assert (= (select D 23) (row1 12)))
(assert (= (select D 24) (row1 10)))
(assert (= (select D 25) (row1 6)))
(assert (= (select D 26) (row1 6)))
(assert (= (select D 27) (row1 12)))
(assert (= (select D 28) (row1 7)))
(assert (= (select D 29) (row1 60)))
(assert (= (select D 30) (row1 18)))
(assert (= (select D 31) (row1 24)))
(assert (= (select D 32) (row1 18)))
(assert (= (select D 33) (row1 12)))
(assert (= (select D 34) (row1 12)))
(assert (= (select D 35) (row1 45)))
(assert (= (select D 36) (row1 48)))
(assert (= (select D 37) (row1 18)))
(assert (= (select D 38) (row1 10)))
(assert (= (select D 39) (row1 9)))
(assert (= (select D 40) (row1 30)))
(assert (= (select D 41) (row1 12)))
(assert (= (select D 42) (row1 18)))
(assert (= (select D 43) (row1 30)))
(assert (= (select D 44) (row1 48)))
(assert (= (select D 45) (row1 11)))
(assert (= (select D 46) (row1 36)))
(assert (= (select D 47) (row1 6)))
(assert (= (select D 48) (row1 11)))
(assert (= (select D 49) (row1 12)))
(assert (= (select D 50) (row1 24)))
(assert (= (select D 51) (row1 27)))
(assert (= (select D 52) (row1 12)))
(assert (= (select D 53) (row1 18)))
(assert (= (select D 54) (row1 36)))
(assert (= (select D 55) (row1 6)))
(assert (= (select D 56) (row1 12)))
(assert (= (select D 57) (row1 36)))
(assert (= (select D 58) (row1 18)))
(assert (= (select D 59) (row1 36)))
(assert (= (select D 60) (row1 9)))
(assert (= (select D 61) (row1 15)))
(assert (= (select D 62) (row1 36)))
(assert (= (select D 63) (row1 48)))
(assert (= (select D 64) (row1 24)))
(assert (= (select D 65) (row1 27)))
(assert (= (select D 66) (row1 12)))
(assert (= (select D 67) (row1 12)))
(assert (= (select D 68) (row1 36)))
(assert (= (select D 69) (row1 36)))
(assert (= (select D 70) (row1 36)))
(assert (= (select D 71) (row1 7)))
(assert (= (select D 72) (row1 8)))
(assert (= (select D 73) (row1 42)))
(assert (= (select D 74) (row1 36)))
(assert (= (select D 75) (row1 12)))
(assert (= (select D 76) (row1 42)))
(assert (= (select D 77) (row1 11)))
(assert (= (select D 78) (row1 54)))
(assert (= (select D 79) (row1 30)))
(assert (= (select D 80) (row1 24)))
(assert (= (select D 81) (row1 15)))
(assert (= (select D 82) (row1 18)))
(assert (= (select D 83) (row1 24)))
(assert (= (select D 84) (row1 10)))
(assert (= (select D 85) (row1 12)))
(assert (= (select D 86) (row1 18)))
(assert (= (select D 87) (row1 36)))
(assert (= (select D 88) (row1 18)))
(assert (= (select D 89) (row1 12)))
(assert (= (select D 90) (row1 12)))
(assert (= (select D 91) (row1 12)))
(assert (= (select D 92) (row1 12)))
(assert (= (select D 93) (row1 24)))
(assert (= (select D 94) (row1 12)))
(assert (= (select D 95) (row1 54)))
(assert (= (select D 96) (row1 12)))
(assert (= (select D 97) (row1 18)))
(assert (= (select D 98) (row1 36)))
(assert (= (select D 99) (row1 20)))
(assert (= (select D 100) (row1 24)))
(assert (= (select D 101) (row1 36)))
(assert (= (select D 102) (row1 6)))
(assert (= (select D 103) (row1 9)))
(assert (= (select D 104) (row1 12)))
(assert (= (select D 105) (row1 24)))
(assert (= (select D 106) (row1 18)))
(assert (= (select D 107) (row1 12)))
(assert (= (select D 108) (row1 24)))
(assert (= (select D 109) (row1 14)))
(assert (= (select D 110) (row1 6)))
(assert (= (select D 111) (row1 15)))
(assert (= (select D 112) (row1 18)))
(assert (= (select D 113) (row1 36)))
(assert (= (select D 114) (row1 12)))
(assert (= (select D 115) (row1 48)))
(assert (= (select D 116) (row1 42)))
(assert (= (select D 117) (row1 10)))
(assert (= (select D 118) (row1 33)))
(assert (= (select D 119) (row1 12)))
(assert (= (select D 120) (row1 21)))
(assert (= (select D 121) (row1 24)))
(assert (= (select D 122) (row1 12)))
(assert (= (select D 123) (row1 10)))
(assert (= (select D 124) (row1 18)))
(assert (= (select D 125) (row1 12)))
(assert (= (select D 126) (row1 12)))
(assert (= (select D 127) (row1 12)))
(assert (= (select D 128) (row1 12)))
(assert (= (select D 129) (row1 12)))
(assert (= (select D 130) (row1 48)))
(assert (= (select D 131) (row1 36)))
(assert (= (select D 132) (row1 15)))
(assert (= (select D 133) (row1 18)))
(assert (= (select D 134) (row1 60)))
(assert (= (select D 135) (row1 12)))
(assert (= (select D 136) (row1 27)))
(assert (= (select D 137) (row1 12)))
(assert (= (select D 138) (row1 15)))
(assert (= (select D 139) (row1 12)))
(assert (= (select D 140) (row1 6)))
(assert (= (select D 141) (row1 36)))
(assert (= (select D 142) (row1 27)))
(assert (= (select D 143) (row1 18)))
(assert (= (select D 144) (row1 21)))
(assert (= (select D 145) (row1 48)))
(assert (= (select D 146) (row1 6)))
(assert (= (select D 147) (row1 12)))
(assert (= (select D 148) (row1 36)))
(assert (= (select D 149) (row1 18)))
(assert (= (select D 150) (row1 6)))
(assert (= (select D 151) (row1 10)))
(assert (= (select D 152) (row1 36)))
(assert (= (select D 153) (row1 24)))
(assert (= (select D 154) (row1 24)))
(assert (= (select D 155) (row1 12)))
(assert (= (select D 156) (row1 9)))
(assert (= (select D 157) (row1 12)))
(assert (= (select D 158) (row1 24)))
(assert (= (select D 159) (row1 6)))
(assert (= (select D 160) (row1 24)))
(assert (= (select D 161) (row1 18)))
(assert (= (select D 162) (row1 15)))
(assert (= (select D 163) (row1 10)))
(assert (= (select D 164) (row1 36)))
(assert (= (select D 165) (row1 6)))
(assert (= (select D 166) (row1 18)))
(assert (= (select D 167) (row1 11)))
(assert (= (select D 168) (row1 24)))
(assert (= (select D 169) (row1 24)))
(assert (= (select D 170) (row1 15)))
(assert (= (select D 171) (row1 12)))
(assert (= (select D 172) (row1 24)))
(assert (= (select D 173) (row1 8)))
(assert (= (select D 174) (row1 21)))
(assert (= (select D 175) (row1 30)))
(assert (= (select D 176) (row1 12)))
(assert (= (select D 177) (row1 6)))
(assert (= (select D 178) (row1 12)))
(assert (= (select D 179) (row1 21)))
(assert (= (select D 180) (row1 36)))
(assert (= (select D 181) (row1 36)))
(assert (= (select D 182) (row1 21)))
(assert (= (select D 183) (row1 24)))
(assert (= (select D 184) (row1 18)))
(assert (= (select D 185) (row1 15)))
(assert (= (select D 186) (row1 9)))
(assert (= (select D 187) (row1 16)))
(assert (= (select D 188) (row1 12)))
(assert (= (select D 189) (row1 18)))
(assert (= (select D 190) (row1 24)))
(assert (= (select D 191) (row1 48)))
(assert (= (select D 192) (row1 27)))
(assert (= (select D 193) (row1 6)))
(assert (= (select D 194) (row1 45)))
(assert (= (select D 195) (row1 9)))
(assert (= (select D 196) (row1 6)))
(assert (= (select D 197) (row1 12)))
(assert (= (select D 198) (row1 24)))
(assert (= (select D 199) (row1 18)))

; ===== loop-like: local min-max validity on original duration =====
; Property: 0 <= duration <= 600
(assert
  (and
    (and (>= (select (select D 0) 0) 0) (<= (select (select D 0) 0) 600))
    (and (>= (select (select D 1) 0) 0) (<= (select (select D 1) 0) 600))
    (and (>= (select (select D 2) 0) 0) (<= (select (select D 2) 0) 600))
    (and (>= (select (select D 3) 0) 0) (<= (select (select D 3) 0) 600))
    (and (>= (select (select D 4) 0) 0) (<= (select (select D 4) 0) 600))
    (and (>= (select (select D 5) 0) 0) (<= (select (select D 5) 0) 600))
    (and (>= (select (select D 6) 0) 0) (<= (select (select D 6) 0) 600))
    (and (>= (select (select D 7) 0) 0) (<= (select (select D 7) 0) 600))
    (and (>= (select (select D 8) 0) 0) (<= (select (select D 8) 0) 600))
    (and (>= (select (select D 9) 0) 0) (<= (select (select D 9) 0) 600))
    (and (>= (select (select D 10) 0) 0) (<= (select (select D 10) 0) 600))
    (and (>= (select (select D 11) 0) 0) (<= (select (select D 11) 0) 600))
    (and (>= (select (select D 12) 0) 0) (<= (select (select D 12) 0) 600))
    (and (>= (select (select D 13) 0) 0) (<= (select (select D 13) 0) 600))
    (and (>= (select (select D 14) 0) 0) (<= (select (select D 14) 0) 600))
    (and (>= (select (select D 15) 0) 0) (<= (select (select D 15) 0) 600))
    (and (>= (select (select D 16) 0) 0) (<= (select (select D 16) 0) 600))
    (and (>= (select (select D 17) 0) 0) (<= (select (select D 17) 0) 600))
    (and (>= (select (select D 18) 0) 0) (<= (select (select D 18) 0) 600))
    (and (>= (select (select D 19) 0) 0) (<= (select (select D 19) 0) 600))
    (and (>= (select (select D 20) 0) 0) (<= (select (select D 20) 0) 600))
    (and (>= (select (select D 21) 0) 0) (<= (select (select D 21) 0) 600))
    (and (>= (select (select D 22) 0) 0) (<= (select (select D 22) 0) 600))
    (and (>= (select (select D 23) 0) 0) (<= (select (select D 23) 0) 600))
    (and (>= (select (select D 24) 0) 0) (<= (select (select D 24) 0) 600))
    (and (>= (select (select D 25) 0) 0) (<= (select (select D 25) 0) 600))
    (and (>= (select (select D 26) 0) 0) (<= (select (select D 26) 0) 600))
    (and (>= (select (select D 27) 0) 0) (<= (select (select D 27) 0) 600))
    (and (>= (select (select D 28) 0) 0) (<= (select (select D 28) 0) 600))
    (and (>= (select (select D 29) 0) 0) (<= (select (select D 29) 0) 600))
    (and (>= (select (select D 30) 0) 0) (<= (select (select D 30) 0) 600))
    (and (>= (select (select D 31) 0) 0) (<= (select (select D 31) 0) 600))
    (and (>= (select (select D 32) 0) 0) (<= (select (select D 32) 0) 600))
    (and (>= (select (select D 33) 0) 0) (<= (select (select D 33) 0) 600))
    (and (>= (select (select D 34) 0) 0) (<= (select (select D 34) 0) 600))
    (and (>= (select (select D 35) 0) 0) (<= (select (select D 35) 0) 600))
    (and (>= (select (select D 36) 0) 0) (<= (select (select D 36) 0) 600))
    (and (>= (select (select D 37) 0) 0) (<= (select (select D 37) 0) 600))
    (and (>= (select (select D 38) 0) 0) (<= (select (select D 38) 0) 600))
    (and (>= (select (select D 39) 0) 0) (<= (select (select D 39) 0) 600))
    (and (>= (select (select D 40) 0) 0) (<= (select (select D 40) 0) 600))
    (and (>= (select (select D 41) 0) 0) (<= (select (select D 41) 0) 600))
    (and (>= (select (select D 42) 0) 0) (<= (select (select D 42) 0) 600))
    (and (>= (select (select D 43) 0) 0) (<= (select (select D 43) 0) 600))
    (and (>= (select (select D 44) 0) 0) (<= (select (select D 44) 0) 600))
    (and (>= (select (select D 45) 0) 0) (<= (select (select D 45) 0) 600))
    (and (>= (select (select D 46) 0) 0) (<= (select (select D 46) 0) 600))
    (and (>= (select (select D 47) 0) 0) (<= (select (select D 47) 0) 600))
    (and (>= (select (select D 48) 0) 0) (<= (select (select D 48) 0) 600))
    (and (>= (select (select D 49) 0) 0) (<= (select (select D 49) 0) 600))
    (and (>= (select (select D 50) 0) 0) (<= (select (select D 50) 0) 600))
    (and (>= (select (select D 51) 0) 0) (<= (select (select D 51) 0) 600))
    (and (>= (select (select D 52) 0) 0) (<= (select (select D 52) 0) 600))
    (and (>= (select (select D 53) 0) 0) (<= (select (select D 53) 0) 600))
    (and (>= (select (select D 54) 0) 0) (<= (select (select D 54) 0) 600))
    (and (>= (select (select D 55) 0) 0) (<= (select (select D 55) 0) 600))
    (and (>= (select (select D 56) 0) 0) (<= (select (select D 56) 0) 600))
    (and (>= (select (select D 57) 0) 0) (<= (select (select D 57) 0) 600))
    (and (>= (select (select D 58) 0) 0) (<= (select (select D 58) 0) 600))
    (and (>= (select (select D 59) 0) 0) (<= (select (select D 59) 0) 600))
    (and (>= (select (select D 60) 0) 0) (<= (select (select D 60) 0) 600))
    (and (>= (select (select D 61) 0) 0) (<= (select (select D 61) 0) 600))
    (and (>= (select (select D 62) 0) 0) (<= (select (select D 62) 0) 600))
    (and (>= (select (select D 63) 0) 0) (<= (select (select D 63) 0) 600))
    (and (>= (select (select D 64) 0) 0) (<= (select (select D 64) 0) 600))
    (and (>= (select (select D 65) 0) 0) (<= (select (select D 65) 0) 600))
    (and (>= (select (select D 66) 0) 0) (<= (select (select D 66) 0) 600))
    (and (>= (select (select D 67) 0) 0) (<= (select (select D 67) 0) 600))
    (and (>= (select (select D 68) 0) 0) (<= (select (select D 68) 0) 600))
    (and (>= (select (select D 69) 0) 0) (<= (select (select D 69) 0) 600))
    (and (>= (select (select D 70) 0) 0) (<= (select (select D 70) 0) 600))
    (and (>= (select (select D 71) 0) 0) (<= (select (select D 71) 0) 600))
    (and (>= (select (select D 72) 0) 0) (<= (select (select D 72) 0) 600))
    (and (>= (select (select D 73) 0) 0) (<= (select (select D 73) 0) 600))
    (and (>= (select (select D 74) 0) 0) (<= (select (select D 74) 0) 600))
    (and (>= (select (select D 75) 0) 0) (<= (select (select D 75) 0) 600))
    (and (>= (select (select D 76) 0) 0) (<= (select (select D 76) 0) 600))
    (and (>= (select (select D 77) 0) 0) (<= (select (select D 77) 0) 600))
    (and (>= (select (select D 78) 0) 0) (<= (select (select D 78) 0) 600))
    (and (>= (select (select D 79) 0) 0) (<= (select (select D 79) 0) 600))
    (and (>= (select (select D 80) 0) 0) (<= (select (select D 80) 0) 600))
    (and (>= (select (select D 81) 0) 0) (<= (select (select D 81) 0) 600))
    (and (>= (select (select D 82) 0) 0) (<= (select (select D 82) 0) 600))
    (and (>= (select (select D 83) 0) 0) (<= (select (select D 83) 0) 600))
    (and (>= (select (select D 84) 0) 0) (<= (select (select D 84) 0) 600))
    (and (>= (select (select D 85) 0) 0) (<= (select (select D 85) 0) 600))
    (and (>= (select (select D 86) 0) 0) (<= (select (select D 86) 0) 600))
    (and (>= (select (select D 87) 0) 0) (<= (select (select D 87) 0) 600))
    (and (>= (select (select D 88) 0) 0) (<= (select (select D 88) 0) 600))
    (and (>= (select (select D 89) 0) 0) (<= (select (select D 89) 0) 600))
    (and (>= (select (select D 90) 0) 0) (<= (select (select D 90) 0) 600))
    (and (>= (select (select D 91) 0) 0) (<= (select (select D 91) 0) 600))
    (and (>= (select (select D 92) 0) 0) (<= (select (select D 92) 0) 600))
    (and (>= (select (select D 93) 0) 0) (<= (select (select D 93) 0) 600))
    (and (>= (select (select D 94) 0) 0) (<= (select (select D 94) 0) 600))
    (and (>= (select (select D 95) 0) 0) (<= (select (select D 95) 0) 600))
    (and (>= (select (select D 96) 0) 0) (<= (select (select D 96) 0) 600))
    (and (>= (select (select D 97) 0) 0) (<= (select (select D 97) 0) 600))
    (and (>= (select (select D 98) 0) 0) (<= (select (select D 98) 0) 600))
    (and (>= (select (select D 99) 0) 0) (<= (select (select D 99) 0) 600))
    (and (>= (select (select D 100) 0) 0) (<= (select (select D 100) 0) 600))
    (and (>= (select (select D 101) 0) 0) (<= (select (select D 101) 0) 600))
    (and (>= (select (select D 102) 0) 0) (<= (select (select D 102) 0) 600))
    (and (>= (select (select D 103) 0) 0) (<= (select (select D 103) 0) 600))
    (and (>= (select (select D 104) 0) 0) (<= (select (select D 104) 0) 600))
    (and (>= (select (select D 105) 0) 0) (<= (select (select D 105) 0) 600))
    (and (>= (select (select D 106) 0) 0) (<= (select (select D 106) 0) 600))
    (and (>= (select (select D 107) 0) 0) (<= (select (select D 107) 0) 600))
    (and (>= (select (select D 108) 0) 0) (<= (select (select D 108) 0) 600))
    (and (>= (select (select D 109) 0) 0) (<= (select (select D 109) 0) 600))
    (and (>= (select (select D 110) 0) 0) (<= (select (select D 110) 0) 600))
    (and (>= (select (select D 111) 0) 0) (<= (select (select D 111) 0) 600))
    (and (>= (select (select D 112) 0) 0) (<= (select (select D 112) 0) 600))
    (and (>= (select (select D 113) 0) 0) (<= (select (select D 113) 0) 600))
    (and (>= (select (select D 114) 0) 0) (<= (select (select D 114) 0) 600))
    (and (>= (select (select D 115) 0) 0) (<= (select (select D 115) 0) 600))
    (and (>= (select (select D 116) 0) 0) (<= (select (select D 116) 0) 600))
    (and (>= (select (select D 117) 0) 0) (<= (select (select D 117) 0) 600))
    (and (>= (select (select D 118) 0) 0) (<= (select (select D 118) 0) 600))
    (and (>= (select (select D 119) 0) 0) (<= (select (select D 119) 0) 600))
    (and (>= (select (select D 120) 0) 0) (<= (select (select D 120) 0) 600))
    (and (>= (select (select D 121) 0) 0) (<= (select (select D 121) 0) 600))
    (and (>= (select (select D 122) 0) 0) (<= (select (select D 122) 0) 600))
    (and (>= (select (select D 123) 0) 0) (<= (select (select D 123) 0) 600))
    (and (>= (select (select D 124) 0) 0) (<= (select (select D 124) 0) 600))
    (and (>= (select (select D 125) 0) 0) (<= (select (select D 125) 0) 600))
    (and (>= (select (select D 126) 0) 0) (<= (select (select D 126) 0) 600))
    (and (>= (select (select D 127) 0) 0) (<= (select (select D 127) 0) 600))
    (and (>= (select (select D 128) 0) 0) (<= (select (select D 128) 0) 600))
    (and (>= (select (select D 129) 0) 0) (<= (select (select D 129) 0) 600))
    (and (>= (select (select D 130) 0) 0) (<= (select (select D 130) 0) 600))
    (and (>= (select (select D 131) 0) 0) (<= (select (select D 131) 0) 600))
    (and (>= (select (select D 132) 0) 0) (<= (select (select D 132) 0) 600))
    (and (>= (select (select D 133) 0) 0) (<= (select (select D 133) 0) 600))
    (and (>= (select (select D 134) 0) 0) (<= (select (select D 134) 0) 600))
    (and (>= (select (select D 135) 0) 0) (<= (select (select D 135) 0) 600))
    (and (>= (select (select D 136) 0) 0) (<= (select (select D 136) 0) 600))
    (and (>= (select (select D 137) 0) 0) (<= (select (select D 137) 0) 600))
    (and (>= (select (select D 138) 0) 0) (<= (select (select D 138) 0) 600))
    (and (>= (select (select D 139) 0) 0) (<= (select (select D 139) 0) 600))
    (and (>= (select (select D 140) 0) 0) (<= (select (select D 140) 0) 600))
    (and (>= (select (select D 141) 0) 0) (<= (select (select D 141) 0) 600))
    (and (>= (select (select D 142) 0) 0) (<= (select (select D 142) 0) 600))
    (and (>= (select (select D 143) 0) 0) (<= (select (select D 143) 0) 600))
    (and (>= (select (select D 144) 0) 0) (<= (select (select D 144) 0) 600))
    (and (>= (select (select D 145) 0) 0) (<= (select (select D 145) 0) 600))
    (and (>= (select (select D 146) 0) 0) (<= (select (select D 146) 0) 600))
    (and (>= (select (select D 147) 0) 0) (<= (select (select D 147) 0) 600))
    (and (>= (select (select D 148) 0) 0) (<= (select (select D 148) 0) 600))
    (and (>= (select (select D 149) 0) 0) (<= (select (select D 149) 0) 600))
    (and (>= (select (select D 150) 0) 0) (<= (select (select D 150) 0) 600))
    (and (>= (select (select D 151) 0) 0) (<= (select (select D 151) 0) 600))
    (and (>= (select (select D 152) 0) 0) (<= (select (select D 152) 0) 600))
    (and (>= (select (select D 153) 0) 0) (<= (select (select D 153) 0) 600))
    (and (>= (select (select D 154) 0) 0) (<= (select (select D 154) 0) 600))
    (and (>= (select (select D 155) 0) 0) (<= (select (select D 155) 0) 600))
    (and (>= (select (select D 156) 0) 0) (<= (select (select D 156) 0) 600))
    (and (>= (select (select D 157) 0) 0) (<= (select (select D 157) 0) 600))
    (and (>= (select (select D 158) 0) 0) (<= (select (select D 158) 0) 600))
    (and (>= (select (select D 159) 0) 0) (<= (select (select D 159) 0) 600))
    (and (>= (select (select D 160) 0) 0) (<= (select (select D 160) 0) 600))
    (and (>= (select (select D 161) 0) 0) (<= (select (select D 161) 0) 600))
    (and (>= (select (select D 162) 0) 0) (<= (select (select D 162) 0) 600))
    (and (>= (select (select D 163) 0) 0) (<= (select (select D 163) 0) 600))
    (and (>= (select (select D 164) 0) 0) (<= (select (select D 164) 0) 600))
    (and (>= (select (select D 165) 0) 0) (<= (select (select D 165) 0) 600))
    (and (>= (select (select D 166) 0) 0) (<= (select (select D 166) 0) 600))
    (and (>= (select (select D 167) 0) 0) (<= (select (select D 167) 0) 600))
    (and (>= (select (select D 168) 0) 0) (<= (select (select D 168) 0) 600))
    (and (>= (select (select D 169) 0) 0) (<= (select (select D 169) 0) 600))
    (and (>= (select (select D 170) 0) 0) (<= (select (select D 170) 0) 600))
    (and (>= (select (select D 171) 0) 0) (<= (select (select D 171) 0) 600))
    (and (>= (select (select D 172) 0) 0) (<= (select (select D 172) 0) 600))
    (and (>= (select (select D 173) 0) 0) (<= (select (select D 173) 0) 600))
    (and (>= (select (select D 174) 0) 0) (<= (select (select D 174) 0) 600))
    (and (>= (select (select D 175) 0) 0) (<= (select (select D 175) 0) 600))
    (and (>= (select (select D 176) 0) 0) (<= (select (select D 176) 0) 600))
    (and (>= (select (select D 177) 0) 0) (<= (select (select D 177) 0) 600))
    (and (>= (select (select D 178) 0) 0) (<= (select (select D 178) 0) 600))
    (and (>= (select (select D 179) 0) 0) (<= (select (select D 179) 0) 600))
    (and (>= (select (select D 180) 0) 0) (<= (select (select D 180) 0) 600))
    (and (>= (select (select D 181) 0) 0) (<= (select (select D 181) 0) 600))
    (and (>= (select (select D 182) 0) 0) (<= (select (select D 182) 0) 600))
    (and (>= (select (select D 183) 0) 0) (<= (select (select D 183) 0) 600))
    (and (>= (select (select D 184) 0) 0) (<= (select (select D 184) 0) 600))
    (and (>= (select (select D 185) 0) 0) (<= (select (select D 185) 0) 600))
    (and (>= (select (select D 186) 0) 0) (<= (select (select D 186) 0) 600))
    (and (>= (select (select D 187) 0) 0) (<= (select (select D 187) 0) 600))
    (and (>= (select (select D 188) 0) 0) (<= (select (select D 188) 0) 600))
    (and (>= (select (select D 189) 0) 0) (<= (select (select D 189) 0) 600))
    (and (>= (select (select D 190) 0) 0) (<= (select (select D 190) 0) 600))
    (and (>= (select (select D 191) 0) 0) (<= (select (select D 191) 0) 600))
    (and (>= (select (select D 192) 0) 0) (<= (select (select D 192) 0) 600))
    (and (>= (select (select D 193) 0) 0) (<= (select (select D 193) 0) 600))
    (and (>= (select (select D 194) 0) 0) (<= (select (select D 194) 0) 600))
    (and (>= (select (select D 195) 0) 0) (<= (select (select D 195) 0) 600))
    (and (>= (select (select D 196) 0) 0) (<= (select (select D 196) 0) 600))
    (and (>= (select (select D 197) 0) 0) (<= (select (select D 197) 0) 600))
    (and (>= (select (select D 198) 0) 0) (<= (select (select D 198) 0) 600))
    (and (>= (select (select D 199) 0) 0) (<= (select (select D 199) 0) 600))
  )
)

(check-sat)
; =================================================